p tw 174 348
1 64
1 65
1 110
1 111
1 121
1 122
1 152
1 153
1 172
1 173
2 67
2 115
2 116
3 55
3 56
3 78
3 79
3 96
3 97
4 60
4 61
4 99
4 100
5 87
5 88
5 110
5 132
6 54
6 55
6 77
6 78
7 59
7 101
7 102
8 62
8 63
8 106
8 107
9 57
9 58
9 79
9 80
9 98
9 146
9 147
10 83
10 84
10 99
10 100
11 125
11 126
11 148
11 149
11 165
11 166
12 89
12 90
12 126
12 127
13 128
13 129
13 151
13 152
14 131
14 157
14 158
15 56
15 57
15 68
15 95
15 96
15 108
15 109
15 130
15 131
16 119
16 120
16 150
16 151
16 170
16 171
17 50
17 51
17 74
17 75
17 92
17 93
17 140
17 141
18 49
18 50
18 73
18 74
18 91
18 92
19 53
19 54
19 76
19 77
19 94
19 95
19 112
19 145
19 146
20 80
20 159
20 160
21 47
21 48
21 71
21 72
21 81
21 82
22 26
22 82
22 83
23 111
23 112
23 132
23 133
24 66
24 118
24 160
24 161
25 61
25 62
25 93
25 94
26 59
26 60
27 129
27 130
27 154
27 155
27 168
27 169
28 113
28 148
28 162
29 114
29 115
29 149
29 150
29 166
29 167
30 133
30 134
30 144
30 145
31 116
31 117
31 155
31 156
31 169
32 46
32 47
32 70
32 71
32 88
32 89
32 119
32 170
33 45
33 46
33 69
33 70
33 85
33 86
33 124
33 136
33 137
34 51
34 52
34 75
34 76
34 84
35 36
35 142
35 143
36 65
36 66
36 143
36 144
37 85
37 101
37 162
37 163
38 122
38 123
38 158
38 159
39 97
39 98
39 109
39 117
39 118
40 134
40 135
40 156
40 157
40 173
40 174
41 102
41 103
41 124
41 125
42 67
42 68
42 120
42 121
42 153
42 154
42 171
42 172
43 45
43 69
43 81
43 136
44 48
44 49
44 72
44 73
44 90
44 91
44 104
44 105
44 113
44 114
44 138
44 139
44 164
44 165
45 46
46 47
47 48
48 49
49 50
50 51
51 52
52 53
53 54
54 55
55 56
56 57
57 58
58 147
59 60
60 61
61 62
62 63
63 64
64 65
65 66
67 68
69 70
70 71
71 72
72 73
73 74
74 75
75 76
76 77
77 78
78 79
79 80
81 82
82 83
83 84
85 86
86 87
87 88
88 89
89 90
90 91
91 92
92 93
93 94
94 95
95 96
96 97
97 98
99 100
101 102
102 103
103 104
104 105
105 106
106 107
107 108
108 109
110 111
111 112
113 114
114 115
115 116
116 117
117 118
119 120
120 121
121 122
122 123
123 161
124 125
125 126
126 127
127 128
128 129
129 130
130 131
132 133
133 134
134 135
135 174
136 137
137 138
138 139
139 140
140 141
141 142
142 143
143 144
144 145
145 146
146 147
148 149
149 150
150 151
151 152
152 153
153 154
154 155
155 156
156 157
157 158
158 159
159 160
160 161
162 163
163 164
164 165
165 166
166 167
167 168
168 169
170 171
171 172
172 173
173 174
